unsat
(define-fun SC ((s (_ BitVec 4)) (t (_ BitVec 4))) Bool (bvult #b0000 (bvsdiv s (bvashr t t))))
2.62user 0.02system 0:02.65elapsed 99%CPU (0avgtext+0avgdata 65052maxresident)k
0inputs+8outputs (0major+10926minor)pagefaults 0swaps
